analyze/results_flowersnark/final_miplib_symretope_if_extended_generating_set_cpx_v802__settings_final_nopeek_norelabel_extend_norestarts__2__square31.mps.gz.sol
solution status: optimal solution found
objective value:                                   15
x_1_1_15                                            1 	(obj:1)
x_1_16_7                                            1 	(obj:1)
x_1_23_9                                            1 	(obj:1)
x_8_16_7                                            1 	(obj:1)
x_10_23_9                                           1 	(obj:1)
x_15_16_3                           0.999999999999993 	(obj:1)
x_15_19_4                                           1 	(obj:1)
x_16_1_8                             1.00000000000001 	(obj:1)
x_16_9_6                            0.999999999999993 	(obj:1)
x_16_15_1                                           1 	(obj:1)
x_17_15_1                                           1 	(obj:1)
x_18_15_4                           0.999999999999993 	(obj:1)
x_19_19_13                                          1 	(obj:1)
x_22_9_10                           0.999999999999993 	(obj:1)
x_24_1_8                            0.999999999999993 	(obj:1)
y_15                                                1 	(obj:0)
y_13                                                1 	(obj:0)
y_10                                0.999999999999993 	(obj:0)
y_9                                                 2 	(obj:0)
y_8                                                 2 	(obj:0)
y_7                                  2.00000000000001 	(obj:0)
y_6                                 0.999999999999993 	(obj:0)
y_4                                  1.99999999999999 	(obj:0)
y_3                                 0.999999999999993 	(obj:0)
y_1                                                 2 	(obj:0)
